
Gurobi 10.0.1 (mac64[x86]) logging started Mi 12 Jul 11:45:19 2023

Set parameter LogFile to value "Output/MILP_inst_100_10_4.txt_2023-07-12_11-44-18.txt"

Gurobi 10.0.1 (mac64[x86]) logging started Mi 12 Jul 11:45:27 2023

Set parameter LogFile to value "Output/MILP_inst_100_10_4.txt_2023-07-12_11-44-18.txt"
Gurobi Optimizer version 10.0.1 build v10.0.1rc0 (mac64[x86])

CPU model: Intel(R) Core(TM) i5-1038NG7 CPU @ 2.00GHz
Thread count: 4 physical cores, 8 logical processors, using up to 8 threads

Academic license - for non-commercial use only - registered to joel.steiner@unifr.ch
Optimize a model with 201 rows, 50236 columns and 277066 nonzeros
Model fingerprint: 0x507175a9
Variable types: 0 continuous, 50236 integer (0 binary)
Coefficient statistics:
  Matrix range     [1e+00, 1e+00]
  Objective range  [6e+00, 1e+04]
  Bounds range     [1e+00, 1e+00]
  RHS range        [1e+00, 1e+00]
Presolve removed 0 rows and 10 columns
Presolve time: 0.60s
Presolved: 201 rows, 50226 columns, 276823 nonzeros
Variable types: 0 continuous, 50226 integer (50226 binary)
Found heuristic solution: objective 172910.00000

Root simplex log...

Iteration    Objective       Primal Inf.    Dual Inf.      Time
    5075    5.1024761e+04   1.704305e+02   0.000000e+00      5s
    7187    5.1557302e+04   0.000000e+00   0.000000e+00      7s

Root relaxation: objective 5.155730e+04, 7187 iterations, 6.50 seconds (7.06 work units)

    Nodes    |    Current Node    |     Objective Bounds      |     Work
 Expl Unexpl |  Obj  Depth IntInf | Incumbent    BestBd   Gap | It/Node Time

     0     0 51557.3018    0  158 172910.000 51557.3018  70.2%     -    7s
H    0     0                    130224.00000 51557.3018  60.4%     -    9s
H    0     0                    123389.99996 51557.3018  58.2%     -   11s
     0     0 51592.9316    0  138 123390.000 51592.9316  58.2%     -   13s
H    0     0                    54165.000000 51592.9316  4.75%     -   36s
H    0     0                    53911.000000 51764.9583  3.98%     -   37s
     0     0 51764.9583    0  118 53911.0000 51764.9583  3.98%     -   37s
     0     0 51773.4707    0  168 53911.0000 51773.4707  3.96%     -   38s
     0     0 51773.4707    0  168 53911.0000 51773.4707  3.96%     -   38s
     0     0 51873.1330    0  178 53911.0000 51873.1330  3.78%     -   43s
H    0     0                    52403.000000 51873.1330  1.01%     -   52s
     0     0 51893.7691    0  189 52403.0000 51893.7691  0.97%     -   53s
     0     0 51893.8272    0  193 52403.0000 51893.8272  0.97%     -   53s
     0     0 51894.5006    0  200 52403.0000 51894.5006  0.97%     -   53s
     0     0 51897.2269    0  197 52403.0000 51897.2269  0.97%     -   53s
     0     0 51897.5379    0  183 52403.0000 51897.5379  0.96%     -   54s
     0     0 51897.6315    0  190 52403.0000 51897.6315  0.96%     -   54s
     0     0 51954.9718    0  179 52403.0000 51954.9718  0.85%     -   55s
     0     0 51954.9718    0  159 52403.0000 51954.9718  0.85%     -   58s
H    0     0                    52387.000000 51954.9718  0.82%     -   58s
     0     0 51954.9718    0  170 52387.0000 51954.9718  0.82%     -   59s
H    0     0                    52328.000000 51954.9718  0.71%     -   60s
     0     0 51954.9718    0  186 52328.0000 51954.9718  0.71%     -   61s
     0     0 51954.9718    0  181 52328.0000 51954.9718  0.71%     -   61s
     0     0 51954.9718    0  185 52328.0000 51954.9718  0.71%     -   61s
     0     0 51956.3047    0  189 52328.0000 51956.3047  0.71%     -   61s
     0     0 51956.3557    0  185 52328.0000 51956.3557  0.71%     -   61s
     0     0 51973.4241    0  180 52328.0000 51973.4241  0.68%     -   62s
     0     0 51974.8136    0  177 52328.0000 51974.8136  0.67%     -   63s
     0     0 51975.6888    0  175 52328.0000 51975.6888  0.67%     -   63s
     0     0 51975.6888    0  179 52328.0000 51975.6888  0.67%     -   63s
     0     0 51976.8914    0  215 52328.0000 51976.8914  0.67%     -   64s
     0     0 51976.8914    0  211 52328.0000 51976.8914  0.67%     -   64s
     0     0 51976.8914    0  161 52328.0000 51976.8914  0.67%     -   70s
     0     0 51976.8914    0  172 52328.0000 51976.8914  0.67%     -   72s
     0     0 51976.8914    0  161 52328.0000 51976.8914  0.67%     -   73s
     0     0 51976.8914    0  212 52328.0000 51976.8914  0.67%     -   73s
     0     0 51976.8914    0  203 52328.0000 51976.8914  0.67%     -   74s
     0     0 51976.9093    0  211 52328.0000 51976.9093  0.67%     -   74s
     0     0 51976.9569    0  211 52328.0000 51976.9569  0.67%     -   74s
     0     0 51978.9913    0  179 52328.0000 51978.9913  0.67%     -   75s
     0     0 51979.1661    0  206 52328.0000 51979.1661  0.67%     -   75s
     0     0 51980.4711    0  223 52328.0000 51980.4711  0.66%     -   76s
     0     0 51980.4711    0  219 52328.0000 51980.4711  0.66%     -   76s
     0     2 51980.4711    0  215 52328.0000 51980.4711  0.66%     -   86s
    19    24 52117.1364    4  142 52328.0000 51999.9925  0.63%   402   90s
    71    77 52067.9245    9  170 52328.0000 51999.9925  0.63%   352   95s
   177   179 52158.1047   27  108 52328.0000 51999.9925  0.63%   249  100s
   317   258 52051.4313    7  190 52328.0000 52021.4821  0.59%   205  105s
   444   347 52093.1644   13  173 52328.0000 52021.4821  0.59%   194  110s
   587   438 52173.9086   20  151 52328.0000 52021.4821  0.59%   195  116s
   717   516 52078.6760   10  192 52328.0000 52029.3265  0.57%   184  120s
   989   607 52307.3148   27  116 52328.0000 52041.8900  0.55%   162  126s
  1039   625 52233.5127   16  179 52328.0000 52049.9444  0.53%   163  138s
  1041   626 52269.1250   30  159 52328.0000 52049.9444  0.53%   163  143s
  1043   628 52229.1170   24  199 52328.0000 52049.9444  0.53%   162  145s
  1054   635 52135.0285   13  232 52328.0000 52049.9444  0.53%   161  152s
  1055   636 52166.0573   30  235 52328.0000 52049.9444  0.53%   160  155s
  1058   638 52131.2588   19  215 52328.0000 52049.9483  0.53%   160  163s
  1069   650 52049.9483   17  197 52328.0000 52049.9483  0.53%   168  165s
  1105   674 52097.7494   22  212 52328.0000 52049.9483  0.53%   179  170s
  1151   706 52158.7507   28  195 52328.0000 52049.9483  0.53%   186  175s
  1210   728     cutoff   32      52328.0000 52049.9483  0.53%   188  180s
  1278   745     cutoff   43      52328.0000 52049.9483  0.53%   188  185s
  1339   736 52314.3441   60  111 52328.0000 52049.9483  0.53%   187  195s
  1370   762 52049.9483   24  194 52328.0000 52049.9483  0.53%   189  200s
  1445   808 52093.4020   39  218 52328.0000 52049.9483  0.53%   188  205s
  1559   804 52244.3378   69  193 52328.0000 52049.9483  0.53%   183  211s
  1612   802 52049.9483   23  214 52328.0000 52049.9483  0.53%   183  215s
  1689   830 52049.9483   26  213 52328.0000 52049.9483  0.53%   181  220s
* 1808   802              46    52308.000000 52049.9483  0.49%   180  224s
  1833   852 52163.8748   33  201 52308.0000 52049.9483  0.49%   181  225s
  1990   850 52049.9483   22  214 52308.0000 52049.9483  0.49%   175  230s
  2092   870 52143.9696   35  207 52308.0000 52049.9483  0.49%   176  237s
  2146   867     cutoff   40      52308.0000 52049.9483  0.49%   177  241s
H 2148   760                    52257.000000 52049.9483  0.40%   176  241s
H 2157   722                    52255.000000 52049.9483  0.39%   177  241s
H 2201   654                    52241.000000 52049.9483  0.37%   175  241s
  2208   687 52149.4958   29  219 52241.0000 52049.9483  0.37%   176  246s
  2295   685 52052.5424   30  205 52241.0000 52049.9483  0.37%   177  251s
  2334   718 52144.3741   40  192 52241.0000 52049.9483  0.37%   178  256s
  2428   725     cutoff   30      52241.0000 52049.9483  0.37%   177  260s
  2539   734 52226.3756   27  190 52241.0000 52049.9483  0.37%   182  268s
  2613   744 52104.3772   25  213 52241.0000 52049.9483  0.37%   181  272s
  2680   773 52049.9483   20  206 52241.0000 52049.9483  0.37%   185  276s

Cutting planes:
  Cover: 4
  Clique: 50
  MIR: 1
  Flow cover: 6
  Zero half: 20
  RLT: 122

Explored 2751 nodes (533565 simplex iterations) in 277.23 seconds (206.40 work units)
Thread count was 8 (of 8 available processors)

Solution count 10: 52241 52255 52257 ... 123390

Solve interrupted
Best objective 5.224100000000e+04, best bound 5.205000000000e+04, gap 0.3656%

User-callback calls 40047, time in user-callback 0.12 sec
